p cnf 23 13
-6 9 1 15 -2 -14 17 -23 -10 4 5 0
-6 -20 -15 16 11 5 -19 7 -3 -1 -23 0
14 -10 -3 16 -15 2 -7 -11 18 -6 -8 0
12 -3 -9 -17 -10 -8 -7 2 -5 -4 -6 0
8 10 1 -14 16 -3 4 -2 7 -9 -22 0
1 7 -9 18 4 3 -5 2 17 -21 10 0
-4 -1 -12 9 3 -8 6 15 -5 16 11 0
2 -14 -4 -1 -8 23 -9 13 -10 -3 12 0
1 -4 12 3 -2 15 14 -22 -16 18 -7 0
11 -2 1 -6 -16 22 -7 -5 -9 4 -18 0
-7 1 -17 5 -11 3 2 15 22 -19 21 0
2 -4 15 3 23 1 8 21 7 -19 -5 0
-7 4 -10 -11 -18 19 2 -17 -12 15 -16 0
